sat
(
  (define-fun G () String
    "a")
  (define-fun E () String
    "")
  (define-fun M () String
    "aaaabb")
  (define-fun K () String
    "")
  (define-fun N () String
    "aaaaabbbaaaabbaaaabbbaa")
)
